NAME : instance_3_800
TYPE : TSP
DIMENSION : 3
EDGE_WEIGHT_TYPE : EUC_2D
LOWER : 0
UPPER : 100
NODE_COORD_SECTION
1 22.8497818345 53.8201710442
2 91.4495089324 63.5180518031
3 26.851591398 7.5416341424
EOF
